WARNING: for repeatability, setting FPU to use double precision
============================[ Problem Statistics ]=============================
|                                                                             |
|  Number of variables:         33791                                         |
|  Number of clauses:          476008                                         |
|  Parse time:                   0.20 s                                       |
|  Eliminated clauses:           0.03 Mb                                      |
|  Simplification time:          0.34 s                                       |
|                                                                             |
============================[ Search Statistics ]==============================
| Conflicts |          ORIGINAL         |          LEARNT          | Progress |
|           |    Vars  Clauses Literals |    Limit  Clauses Lit/Cl |          |
===============================================================================
|       100 |    4839    72680   194687 |    26649      100     34 | 81.309 % |
|       250 |    4839    72680   194687 |    29314      250     40 | 81.309 % |
|       475 |    4839    72680   194687 |    32245      475     42 | 81.309 % |
|       812 |    4839    72680   194687 |    35470      812     40 | 81.309 % |
|      1318 |    4839    72680   194687 |    39017     1318     50 | 81.309 % |
|      2077 |    4839    72680   194687 |    42919     2077     52 | 81.309 % |
|      3216 |    4839    72680   194687 |    47210     3216     90 | 81.309 % |
|      4924 |    4839    72680   194687 |    51932     4924     85 | 81.309 % |
===============================================================================
restarts              : 30
conflicts             : 5951           (8246 /sec)
decisions             : 55610          (0.00 % random) (77054 /sec)
propagations          : 606720         (840679 /sec)
conflict literals     : 555223         (4.13 % deleted)
Memory used           : 55.00 MB
CPU time              : 0.721702 s

SATISFIABLE
WARNING: for repeatability, setting FPU to use double precision
============================[ Problem Statistics ]=============================
|                                                                             |
|  Number of variables:         33791                                         |
|  Number of clauses:          476008                                         |
|  Parse time:                   0.16 s                                       |
|  Eliminated clauses:           0.03 Mb                                      |
|  Simplification time:          0.24 s                                       |
|                                                                             |
============================[ Search Statistics ]==============================
| Conflicts |          ORIGINAL         |          LEARNT          | Progress |
|           |    Vars  Clauses Literals |    Limit  Clauses Lit/Cl |          |
===============================================================================
|       100 |    4839    72680   194687 |    26649      100     34 | 81.309 % |
|       250 |    4839    72680   194687 |    29314      250     40 | 81.309 % |
|       475 |    4839    72680   194687 |    32245      475     42 | 81.309 % |
|       812 |    4839    72680   194687 |    35470      812     40 | 81.309 % |
|      1318 |    4839    72680   194687 |    39017     1318     50 | 81.309 % |
|      2077 |    4839    72680   194687 |    42919     2077     52 | 81.309 % |
|      3216 |    4839    72680   194687 |    47210     3216     90 | 81.309 % |
|      4924 |    4839    72680   194687 |    51932     4924     85 | 81.309 % |
===============================================================================
restarts              : 30
conflicts             : 5951           (11176 /sec)
decisions             : 55610          (0.00 % random) (104431 /sec)
propagations          : 606720         (1139374 /sec)
conflict literals     : 555223         (4.13 % deleted)
Memory used           : 55.00 MB
CPU time              : 0.532503 s

SATISFIABLE
